c description: Random 2-CNF over 15 variables and 65 clauses
c generator: CNFgen (0.9.0)
c copyright: (C) 2012-2020 Massimo Lauria <massimo.lauria@uniroma1.it>
c url: https://massimolauria.net/cnfgen
c
p cnf 15 65
4 13 0
-10 13 0
12 13 0
9 12 0
-10 11 0
-2 9 0
-1 -13 0
-5 8 0
6 12 0
7 -10 0
-3 7 0
-1 10 0
2 5 0
-3 13 0
6 10 0
1 7 0
-4 -10 0
4 15 0
-6 -8 0
-9 11 0
-5 -11 0
-7 -12 0
-5 11 0
-1 -14 0
-5 -15 0
-1 -10 0
-1 2 0
-9 15 0
-8 -12 0
6 8 0
-12 -13 0
-5 -9 0
-7 11 0
-1 -12 0
1 5 0
-5 -10 0
1 -14 0
-3 14 0
2 9 0
11 -15 0
-8 -13 0
6 15 0
12 -15 0
-3 -5 0
8 -13 0
-12 -15 0
-6 -11 0
-13 14 0
11 -14 0
8 12 0
12 -14 0
5 -8 0
-4 7 0
-8 9 0
-3 -6 0
9 -10 0
-1 -5 0
1 4 0
5 -6 0
3 11 0
11 12 0
3 13 0
-4 -6 0
2 12 0
-4 13 0